c 88_4_checker_6cl.cnf
c
c field = 88
c formula set type = 4_checker_6cl
c
p cnf 6 22
166 
168 
170 
172 
-164 
-176 
167 
169 
171 
173 
-165 
-177 
168 
170 
172 
176 
-166 
-178 
169 
171 
173 
177 
-167 
-179 
54 
84 
114 
144 
-24 
-204 
55 
85 
115 
145 
-25 
-205 
84 
114 
144 
204 
-54 
-234 
85 
115 
145 
205 
-55 
-235 
114 
144 
204 
234 
-84 
-264 
115 
145 
205 
235 
-85 
-265 
144 
204 
234 
264 
-114 
-294 
145 
205 
235 
265 
-115 
-295 
204 
234 
264 
294 
-144 
-324 
205 
235 
265 
295 
-145 
-325 
46 
78 
110 
142 
-14 
-206 
47 
79 
111 
143 
-15 
-207 
78 
110 
142 
206 
-46 
-238 
79 
111 
143 
207 
-47 
-239 
146 
202 
230 
258 
-118 
-286 
147 
203 
231 
259 
-119 
-287 
202 
230 
258 
286 
-146 
-314 
203 
231 
259 
287 
-147 
-315 
